(set-info :source |printed by MathSAT|)

1 (84,83,82,81,80,79,78) @37:
(assert true)

84 () @474:
(assert true)

83 () @475:
(assert true)

82 () @476:
(assert true)

81 () @477:
(assert true)

80 () @476:
(assert true)

79 () @477:
(assert true)

78 () @480:
(assert true)

